
n_res = 8;
rcap = [57, 59, 57, 56, 1367, 1362, 1445, 1384];
rtype = [1, 1, 1, 1, 2, 2, 2, 2];
n_tasks = 100;
modes =  [{1, 2, 3, 4, 5, 6}, {7, 8, 9, 10, 11, 12}, {13, 14, 15, 16, 17, 18}, {19, 20, 21, 22, 23, 24}, {25, 26, 27, 28, 29, 30}, {31, 32, 33, 34, 35, 36}, {37, 38, 39, 40, 41, 42}, {43, 44, 45, 46, 47, 48}, {49, 50, 51, 52, 53, 54}, {55, 56, 57, 58, 59, 60}, {61, 62, 63, 64, 65, 66}, {67, 68, 69, 70, 71, 72}, {73, 74, 75, 76, 77, 78}, {79, 80, 81, 82, 83, 84}, {85, 86, 87, 88, 89, 90}, {91, 92, 93, 94, 95, 96}, {97, 98, 99, 100, 101, 102}, {103, 104, 105, 106, 107, 108}, {109, 110, 111, 112, 113, 114}, {115, 116, 117, 118, 119, 120}, {121, 122, 123, 124, 125, 126}, {127, 128, 129, 130, 131, 132}, {133, 134, 135, 136, 137, 138}, {139, 140, 141, 142, 143, 144}, {145, 146, 147, 148, 149, 150}, {151, 152, 153, 154, 155, 156}, {157, 158, 159, 160, 161, 162}, {163, 164, 165, 166, 167, 168}, {169, 170, 171, 172, 173, 174}, {175, 176, 177, 178, 179, 180}, {181, 182, 183, 184, 185, 186}, {187, 188, 189, 190, 191, 192}, {193, 194, 195, 196, 197, 198}, {199, 200, 201, 202, 203, 204}, {205, 206, 207, 208, 209, 210}, {211, 212, 213, 214, 215, 216}, {217, 218, 219, 220, 221, 222}, {223, 224, 225, 226, 227, 228}, {229, 230, 231, 232, 233, 234}, {235, 236, 237, 238, 239, 240}, {241, 242, 243, 244, 245, 246}, {247, 248, 249, 250, 251, 252}, {253, 254, 255, 256, 257, 258}, {259, 260, 261, 262, 263, 264}, {265, 266, 267, 268, 269, 270}, {271, 272, 273, 274, 275, 276}, {277, 278, 279, 280, 281, 282}, {283, 284, 285, 286, 287, 288}, {289, 290, 291, 292, 293, 294}, {295, 296, 297, 298, 299, 300}, {301, 302, 303, 304, 305, 306}, {307, 308, 309, 310, 311, 312}, {313, 314, 315, 316, 317, 318}, {319, 320, 321, 322, 323, 324}, {325, 326, 327, 328, 329, 330}, {331, 332, 333, 334, 335, 336}, {337, 338, 339, 340, 341, 342}, {343, 344, 345, 346, 347, 348}, {349, 350, 351, 352, 353, 354}, {355, 356, 357, 358, 359, 360}, {361, 362, 363, 364, 365, 366}, {367, 368, 369, 370, 371, 372}, {373, 374, 375, 376, 377, 378}, {379, 380, 381, 382, 383, 384}, {385, 386, 387, 388, 389, 390}, {391, 392, 393, 394, 395, 396}, {397, 398, 399, 400, 401, 402}, {403, 404, 405, 406, 407, 408}, {409, 410, 411, 412, 413, 414}, {415, 416, 417, 418, 419, 420}, {421, 422, 423, 424, 425, 426}, {427, 428, 429, 430, 431, 432}, {433, 434, 435, 436, 437, 438}, {439, 440, 441, 442, 443, 444}, {445, 446, 447, 448, 449, 450}, {451, 452, 453, 454, 455, 456}, {457, 458, 459, 460, 461, 462}, {463, 464, 465, 466, 467, 468}, {469, 470, 471, 472, 473, 474}, {475, 476, 477, 478, 479, 480}, {481, 482, 483, 484, 485, 486}, {487, 488, 489, 490, 491, 492}, {493, 494, 495, 496, 497, 498}, {499, 500, 501, 502, 503, 504}, {505, 506, 507, 508, 509, 510}, {511, 512, 513, 514, 515, 516}, {517, 518, 519, 520, 521, 522}, {523, 524, 525, 526, 527, 528}, {529, 530, 531, 532, 533, 534}, {535, 536, 537, 538, 539, 540}, {541, 542, 543, 544, 545, 546}, {547, 548, 549, 550, 551, 552}, {553, 554, 555, 556, 557, 558}, {559, 560, 561, 562, 563, 564}, {565, 566, 567, 568, 569, 570}, {571, 572, 573, 574, 575, 576}, {577, 578, 579, 580, 581, 582}, {583, 584, 585, 586, 587, 588}, {589, 590, 591, 592, 593, 594}, {595, 596, 597, 598, 599, 600}];
succ =  [{100, 86, 70, 68, 66, 61, 57, 56, 53, 52, 51, 50, 48, 47, 46, 45, 44, 42, 41, 40, 36, 35, 32, 31, 30, 27}, {66, 62, 61, 53, 49, 46, 45, 38, 34, 32, 31, 20, 19}, {89, 85, 84, 69, 59, 49, 45, 40, 38, 26, 7}, {86, 70, 67, 66, 62, 61, 58, 48, 45, 35, 32, 30, 27}, {100, 96, 91, 88, 86, 67, 66, 63, 60, 49, 46, 42, 31, 21}, {95, 93, 88, 86, 85, 84, 70, 68, 67, 66, 65, 59, 58, 49, 42, 36, 28}, {94, 86, 68, 66, 65, 63, 60, 56, 55, 53, 50, 44, 39}, {100, 99, 96, 89, 87, 85, 73, 67, 66, 59, 58, 56, 55, 53, 45}, {97, 91, 89, 87, 86, 85, 79, 67, 58, 55, 51, 49, 33}, {97, 86, 69, 67, 66, 65, 63, 62, 59, 55, 54, 42, 31}, {98, 96, 95, 92, 91, 88, 86, 78, 62, 59, 49, 42, 31}, {99, 95, 93, 86, 84, 82, 65, 62, 61, 60, 50, 49, 34}, {99, 98, 96, 93, 89, 87, 65, 63, 59, 58, 55, 54, 37}, {99, 98, 97, 94, 77, 66, 65, 53, 27}, {96, 93, 89, 87, 82, 80, 66, 65, 58, 50, 42, 30}, {96, 95, 94, 93, 92, 89, 88, 87, 86, 85, 84, 83, 79, 78, 68, 64, 58, 55, 44}, {99, 98, 97, 95, 94, 91, 89, 86, 84, 83, 82, 78, 75, 65, 61, 60, 49}, {95, 93, 67, 65, 63, 40, 34}, {95, 94, 93, 90, 89, 86, 84, 82, 75, 72, 67, 65, 63, 56, 54}, {97, 96, 95, 92, 91, 89, 88, 86, 85, 83, 80, 79, 76, 73, 69, 64, 58, 55}, {95, 92, 90, 89, 82, 81, 68, 54, 50, 44}, {99, 97, 96, 94, 93, 92, 91, 86, 85, 83, 82, 80, 76, 75, 74, 71, 63, 55}, {97, 96, 94, 93, 91, 86, 85, 83, 82, 78, 65, 62, 60, 58, 42}, {97, 96, 93, 91, 87, 86, 80, 76, 73, 67, 66, 65, 46}, {99, 98, 95, 93, 89, 88, 82, 78, 75, 65, 62, 55, 54}, {99, 98, 94, 92, 91, 90, 83, 81, 77, 75, 72, 67, 65, 54}, {96, 93, 92, 91, 89, 88, 87, 83, 82, 75, 74, 49}, {96, 91, 90, 82, 81, 79, 72, 69, 63, 62, 54}, {97, 93, 92, 90, 89, 86, 83, 82, 79, 74, 49}, {99, 98, 92, 91, 79, 76, 64, 63, 55}, {99, 93, 87, 85, 83, 77, 76, 73, 72, 64, 58}, {97, 95, 92, 91, 81, 80, 79, 75, 74, 64, 59}, {99, 92, 84, 83, 82, 80, 76, 74, 53}, {98, 96, 92, 91, 88, 81, 74, 72, 54}, {98, 94, 91, 82, 80, 78, 77, 75, 74, 73, 72, 64}, {98, 87, 80, 79, 78, 75, 74, 72, 71, 62}, {95, 91, 88, 80, 76, 75, 74, 64, 62}, {97, 92, 82, 81, 80, 79, 78, 76, 74, 73, 72}, {96, 87, 82, 81, 80, 78, 77, 75, 72, 64}, {99, 94, 88, 83, 82, 78, 75, 74, 73, 71}, {96, 95, 94, 91, 90, 88, 85, 77, 72, 71}, {90, 81, 79, 77, 75, 74, 73, 72, 71}, {92, 81, 80, 79, 78, 75, 73, 72, 71}, {98, 76, 75, 74, 72, 71, 62}, {82, 80, 78, 76, 75, 65, 64}, {92, 79, 72, 64, 59}, {89, 82, 78, 77, 75, 74, 72, 71}, {93, 85, 78, 76, 75, 72, 64}, {81, 72, 54}, {97, 83, 79, 78, 75, 74, 72}, {88, 84, 76, 74, 73, 64}, {93, 90, 79, 72, 63}, {95, 93, 90, 78, 72, 71}, {80, 76, 73, 64}, {90, 81, 77, 72}, {97, 91, 81, 77}, {82, 77, 76, 73}, {90, 75, 74}, {94, 83, 82}, {77, 74, 71}, {79, 64}, {77, 73}, {78, 73}, {71}, {79}, {92}, {74}, {72}, {74}, {89}, {}, {}, {}, {}, {}, {}, {}, {}, {}, {}, {}, {}, {}, {}, {}, {}, {}, {}, {}, {}, {}, {}, {}, {}, {}, {}, {}, {}, {}, {}];
n_opt = 600;
dur = [6, 7, 12, 13, 16, 19, 5, 8, 11, 21, 22, 29, 1, 8, 9, 16, 17, 26, 1, 12, 13, 14, 16, 25, 1, 19, 24, 25, 28, 29, 2, 6, 15, 21, 22, 28, 2, 3, 9, 23, 26, 28, 3, 4, 5, 6, 7, 29, 5, 7, 8, 14, 20, 24, 3, 17, 23, 27, 28, 30, 15, 16, 19, 22, 25, 29, 3, 12, 14, 16, 17, 23, 6, 8, 11, 15, 19, 29, 6, 8, 9, 21, 25, 28, 2, 9, 20, 21, 27, 28, 5, 6, 9, 13, 23, 25, 6, 11, 12, 15, 26, 27, 12, 18, 19, 22, 23, 30, 4, 11, 13, 14, 15, 28, 1, 5, 9, 16, 24, 29, 2, 12, 17, 22, 23, 30, 7, 17, 21, 23, 24, 26, 3, 6, 8, 11, 21, 25, 2, 11, 17, 22, 29, 30, 6, 10, 11, 12, 18, 29, 6, 12, 15, 16, 21, 27, 8, 9, 13, 14, 15, 19, 2, 3, 16, 23, 25, 26, 4, 5, 8, 19, 21, 29, 5, 7, 22, 25, 26, 27, 5, 11, 14, 17, 28, 30, 4, 5, 11, 17, 23, 30, 1, 4, 7, 8, 23, 30, 2, 7, 13, 20, 22, 30, 1, 8, 13, 14, 26, 30, 5, 11, 12, 18, 28, 29, 8, 14, 18, 22, 23, 24, 5, 8, 11, 12, 25, 26, 8, 16, 21, 23, 25, 29, 3, 12, 14, 21, 22, 25, 2, 3, 8, 10, 22, 25, 3, 16, 21, 22, 24, 28, 5, 6, 7, 17, 21, 27, 9, 16, 17, 18, 19, 27, 4, 5, 11, 12, 23, 25, 7, 12, 14, 19, 20, 27, 3, 11, 13, 18, 21, 26, 3, 8, 13, 15, 16, 25, 9, 10, 13, 14, 15, 25, 10, 13, 15, 27, 28, 29, 2, 3, 4, 14, 26, 28, 6, 11, 14, 22, 23, 24, 2, 3, 12, 18, 26, 29, 6, 8, 10, 12, 23, 25, 1, 5, 9, 11, 14, 27, 3, 18, 21, 24, 25, 27, 4, 5, 10, 13, 22, 25, 1, 3, 9, 10, 11, 13, 7, 16, 18, 20, 24, 27, 8, 10, 17, 18, 25, 26, 7, 13, 16, 17, 21, 29, 1, 2, 6, 14, 17, 26, 6, 10, 11, 12, 22, 23, 11, 18, 19, 21, 23, 24, 1, 4, 9, 15, 18, 26, 1, 7, 18, 19, 24, 28, 10, 11, 17, 18, 26, 29, 12, 17, 20, 22, 24, 27, 8, 9, 15, 19, 28, 29, 5, 6, 9, 12, 21, 28, 13, 14, 16, 27, 28, 29, 6, 16, 18, 19, 21, 28, 2, 11, 13, 19, 20, 27, 1, 3, 5, 14, 23, 29, 4, 9, 13, 14, 15, 19, 8, 12, 14, 21, 27, 29, 5, 12, 13, 14, 17, 26, 2, 6, 14, 25, 26, 27, 1, 12, 13, 15, 20, 24, 12, 13, 15, 16, 20, 26, 7, 19, 22, 27, 28, 29, 2, 6, 9, 20, 21, 25, 5, 11, 17, 24, 26, 29, 8, 9, 12, 15, 18, 19, 1, 9, 11, 17, 21, 25, 1, 2, 5, 12, 26, 29, 11, 18, 19, 24, 25, 30, 4, 10, 11, 15, 26, 28, 1, 2, 5, 17, 18, 25, 4, 7, 9, 10, 21, 28, 4, 6, 11, 15, 29, 30, 1, 3, 4, 10, 13, 14, 2, 5, 6, 7, 15, 20, 12, 13, 14, 19, 23, 28, 4, 6, 9, 19, 22, 28, 1, 9, 11, 13, 19, 20, 1, 7, 8, 11, 16, 24, 11, 19, 23, 27, 29, 30, 1, 7, 16, 17, 21, 24, 4, 5, 11, 19, 20, 24];
rreq = [|3, 2, 2, 1, 1, 1, 4, 4, 4, 4, 3, 3, 3, 3, 3, 3, 3, 3, 3, 3, 2, 2, 1, 1, 4, 3, 3, 2, 2, 1, 5, 4, 4, 4, 4, 4, 4, 4, 4, 4, 4, 4, 4, 4, 4, 4, 4, 4, 4, 4, 3, 2, 1, 1, 3, 3, 2, 2, 2, 1, 5, 4, 4, 4, 3, 3, 1, 1, 1, 1, 1, 1, 2, 2, 2, 2, 1, 1, 4, 3, 3, 2, 2, 1, 5, 4, 4, 4, 4, 4, 2, 2, 2, 2, 2, 2, 4, 3, 3, 3, 2, 2, 4, 4, 3, 3, 2, 1, 4, 4, 4, 3, 3, 2, 5, 4, 4, 4, 4, 4, 2, 2, 2, 2, 2, 2, 2, 2, 2, 1, 1, 1, 2, 1, 1, 1, 1, 1, 3, 3, 3, 3, 2, 2, 3, 3, 3, 3, 3, 3, 3, 3, 2, 2, 1, 1, 3, 3, 3, 2, 2, 1, 2, 2, 2, 2, 2, 2, 3, 3, 3, 3, 3, 3, 4, 3, 3, 2, 1, 1, 4, 4, 4, 4, 4, 4, 1, 1, 1, 1, 1, 1, 4, 4, 4, 4, 4, 4, 4, 4, 4, 4, 4, 4, 5, 4, 3, 3, 3, 2, 5, 4, 4, 4, 3, 3, 5, 4, 3, 3, 3, 2, 3, 2, 2, 2, 1, 1, 3, 2, 2, 2, 2, 2, 2, 2, 2, 2, 2, 2, 2, 1, 1, 1, 1, 1, 4, 4, 4, 4, 4, 4, 3, 2, 2, 2, 2, 2, 3, 3, 3, 3, 2, 2, 3, 2, 2, 2, 2, 2, 4, 4, 4, 3, 3, 2, 3, 3, 3, 3, 3, 3, 3, 3, 2, 2, 1, 1, 3, 2, 2, 2, 2, 2, 3, 3, 3, 3, 3, 3, 2, 1, 1, 1, 1, 1, 5, 5, 5, 5, 5, 5, 3, 3, 2, 2, 2, 1, 4, 4, 4, 4, 4, 4, 4, 4, 4, 4, 3, 3, 3, 3, 3, 3, 3, 3, 3, 3, 3, 2, 2, 2, 4, 3, 3, 2, 2, 1, 2, 2, 2, 2, 1, 1, 4, 3, 2, 2, 2, 1, 5, 4, 3, 3, 3, 2, 3, 2, 2, 1, 1, 1, 5, 3, 3, 2, 2, 1, 4, 4, 4, 4, 3, 3, 5, 5, 5, 5, 5, 5, 5, 4, 4, 3, 3, 3, 3, 3, 3, 3, 3, 3, 4, 3, 3, 3, 3, 3, 5, 5, 5, 5, 5, 5, 1, 1, 1, 1, 1, 1, 4, 3, 3, 3, 3, 3, 1, 1, 1, 1, 1, 1, 3, 3, 3, 3, 3, 3, 3, 2, 2, 2, 1, 1, 3, 2, 2, 2, 2, 2, 4, 3, 3, 2, 2, 1, 4, 3, 3, 2, 2, 1, 2, 1, 1, 1, 1, 1, 4, 3, 2, 2, 2, 1, 4, 4, 4, 4, 4, 4, 4, 4, 4, 4, 4, 4, 3, 3, 3, 3, 3, 3, 4, 4, 4, 4, 4, 4, 2, 2, 2, 2, 2, 2, 3, 3, 3, 3, 3, 3, 5, 4, 4, 3, 3, 3, 4, 4, 4, 3, 3, 2, 1, 1, 1, 1, 1, 1, 3, 3, 2, 2, 2, 1, 5, 5, 5, 5, 5, 5, 4, 4, 3, 3, 2, 2, 1, 1, 1, 1, 1, 1, 3, 3, 3, 3, 3, 3, 4, 3, 3, 2, 2, 2, 5, 4, 4, 3, 3, 2, 5, 5, 5, 5, 5, 5, 3, 3, 3, 3, 2, 2, 2, 2, 2, 1, 1, 1, 5, 4, 4, 3, 3, 3, 4, 4, 4, 3, 3, 2
 |1, 1, 1, 1, 1, 1, 4, 3, 3, 3, 3, 3, 1, 1, 1, 1, 1, 1, 3, 2, 2, 2, 2, 2, 1, 1, 1, 1, 1, 1, 3, 2, 2, 2, 2, 2, 5, 4, 4, 4, 3, 3, 4, 3, 2, 2, 1, 1, 3, 2, 2, 2, 1, 1, 5, 4, 4, 4, 4, 4, 4, 4, 4, 4, 3, 3, 4, 4, 4, 3, 3, 3, 2, 2, 2, 2, 1, 1, 5, 4, 4, 4, 4, 4, 2, 1, 1, 1, 1, 1, 5, 4, 4, 4, 4, 4, 5, 5, 5, 5, 5, 5, 4, 3, 3, 3, 3, 3, 5, 5, 5, 5, 5, 5, 3, 2, 2, 2, 2, 2, 5, 4, 4, 3, 3, 3, 3, 2, 2, 2, 2, 2, 2, 1, 1, 1, 1, 1, 2, 2, 2, 2, 2, 2, 5, 4, 3, 3, 2, 2, 3, 3, 3, 3, 3, 3, 4, 4, 3, 2, 2, 1, 3, 3, 3, 3, 2, 2, 5, 3, 3, 3, 2, 1, 5, 4, 4, 3, 2, 2, 1, 1, 1, 1, 1, 1, 3, 3, 3, 2, 2, 1, 3, 2, 2, 2, 2, 2, 4, 4, 4, 4, 4, 4, 4, 3, 3, 3, 3, 3, 4, 4, 4, 3, 3, 3, 4, 3, 3, 2, 1, 1, 5, 3, 3, 3, 2, 1, 4, 3, 2, 2, 2, 1, 3, 3, 3, 3, 2, 2, 5, 5, 5, 5, 5, 5, 3, 3, 3, 3, 3, 3, 3, 3, 2, 2, 1, 1, 3, 3, 3, 2, 1, 1, 4, 3, 3, 2, 1, 1, 3, 2, 2, 2, 2, 2, 3, 2, 2, 2, 2, 2, 4, 3, 3, 3, 3, 3, 5, 5, 5, 5, 5, 5, 4, 3, 3, 2, 2, 1, 4, 4, 4, 4, 3, 3, 2, 2, 2, 1, 1, 1, 4, 4, 4, 4, 4, 4, 4, 3, 3, 2, 2, 2, 5, 4, 3, 3, 2, 2, 4, 3, 2, 2, 1, 1, 3, 3, 2, 2, 1, 1, 3, 2, 2, 1, 1, 1, 4, 4, 4, 3, 2, 2, 2, 2, 2, 2, 2, 2, 3, 2, 2, 1, 1, 1, 5, 4, 4, 4, 3, 3, 1, 1, 1, 1, 1, 1, 5, 5, 5, 5, 5, 5, 2, 1, 1, 1, 1, 1, 2, 2, 2, 1, 1, 1, 3, 2, 2, 1, 1, 1, 4, 3, 3, 3, 3, 3, 4, 3, 3, 3, 3, 3, 4, 3, 3, 3, 1, 1, 4, 3, 3, 2, 2, 2, 5, 5, 5, 5, 5, 5, 5, 4, 4, 3, 2, 2, 3, 3, 3, 3, 3, 3, 2, 1, 1, 1, 1, 1, 4, 4, 4, 3, 3, 3, 4, 3, 3, 3, 3, 3, 1, 1, 1, 1, 1, 1, 1, 1, 1, 1, 1, 1, 3, 3, 3, 2, 2, 1, 5, 4, 3, 3, 3, 2, 4, 3, 3, 2, 1, 1, 2, 2, 2, 2, 2, 2, 5, 4, 3, 3, 3, 2, 2, 2, 2, 2, 2, 2, 4, 3, 3, 3, 2, 2, 5, 4, 4, 3, 3, 3, 4, 3, 3, 3, 3, 3, 5, 4, 4, 3, 3, 2, 1, 1, 1, 1, 1, 1, 3, 3, 3, 3, 2, 2, 4, 3, 3, 3, 2, 1, 3, 2, 2, 2, 2, 2, 4, 4, 4, 4, 3, 3, 4, 3, 3, 2, 2, 2, 4, 4, 4, 4, 4, 4, 5, 4, 4, 3, 2, 2, 5, 5, 5, 5, 5, 5, 4, 4, 4, 3, 2, 2, 3, 3, 3, 3, 3, 3
 |2, 2, 2, 2, 2, 2, 4, 4, 3, 3, 2, 2, 3, 2, 2, 1, 1, 1, 4, 3, 3, 3, 2, 2, 3, 2, 2, 2, 2, 2, 4, 4, 3, 3, 2, 2, 4, 3, 3, 3, 3, 3, 4, 4, 3, 2, 1, 1, 3, 2, 2, 1, 1, 1, 4, 3, 3, 2, 1, 1, 5, 4, 4, 3, 3, 3, 2, 2, 2, 2, 2, 2, 4, 4, 4, 4, 4, 4, 2, 2, 2, 2, 2, 2, 2, 2, 2, 2, 2, 2, 4, 3, 3, 2, 2, 1, 1, 1, 1, 1, 1, 1, 3, 2, 2, 2, 2, 2, 2, 1, 1, 1, 1, 1, 2, 2, 2, 2, 2, 2, 5, 4, 3, 3, 2, 1, 4, 4, 4, 4, 3, 3, 2, 1, 1, 1, 1, 1, 2, 2, 2, 1, 1, 1, 5, 5, 5, 5, 5, 5, 4, 3, 3, 3, 3, 3, 4, 3, 3, 2, 1, 1, 3, 3, 3, 3, 3, 3, 2, 2, 2, 2, 2, 2, 3, 3, 2, 2, 1, 1, 4, 3, 3, 2, 2, 2, 5, 3, 3, 2, 1, 1, 5, 5, 5, 5, 5, 5, 4, 4, 3, 3, 2, 2, 4, 4, 4, 4, 4, 4, 5, 4, 3, 2, 2, 1, 4, 4, 4, 3, 3, 3, 2, 2, 2, 2, 1, 1, 3, 2, 2, 2, 2, 2, 4, 3, 3, 2, 1, 1, 4, 4, 4, 4, 3, 3, 4, 4, 3, 3, 2, 1, 4, 4, 4, 3, 2, 2, 5, 4, 4, 4, 4, 4, 4, 3, 3, 3, 3, 3, 3, 3, 2, 2, 1, 1, 5, 4, 4, 4, 4, 4, 5, 4, 4, 4, 3, 3, 3, 3, 3, 2, 2, 1, 2, 2, 2, 1, 1, 1, 4, 3, 3, 3, 2, 2, 2, 2, 2, 2, 1, 1, 3, 3, 3, 3, 3, 3, 1, 1, 1, 1, 1, 1, 4, 3, 3, 3, 2, 2, 4, 4, 3, 3, 2, 2, 2, 2, 2, 2, 2, 2, 4, 4, 4, 3, 3, 3, 3, 3, 3, 3, 3, 3, 5, 5, 5, 5, 5, 5, 3, 3, 3, 3, 3, 3, 5, 5, 5, 5, 5, 5, 3, 2, 2, 1, 1, 1, 4, 4, 4, 4, 3, 3, 4, 3, 3, 3, 3, 3, 1, 1, 1, 1, 1, 1, 3, 3, 2, 2, 1, 1, 1, 1, 1, 1, 1, 1, 2, 1, 1, 1, 1, 1, 5, 4, 4, 3, 3, 3, 3, 3, 3, 3, 2, 2, 1, 1, 1, 1, 1, 1, 2, 2, 2, 2, 1, 1, 2, 2, 2, 1, 1, 1, 4, 3, 3, 3, 2, 2, 4, 3, 3, 3, 3, 3, 2, 1, 1, 1, 1, 1, 2, 2, 2, 2, 2, 2, 2, 2, 2, 2, 2, 2, 4, 4, 4, 3, 2, 2, 2, 2, 2, 2, 2, 2, 4, 4, 3, 3, 2, 2, 4, 3, 3, 2, 2, 2, 3, 2, 2, 2, 2, 2, 5, 4, 4, 3, 2, 2, 5, 5, 5, 5, 5, 5, 5, 4, 3, 3, 3, 2, 4, 4, 4, 4, 4, 4, 3, 3, 3, 3, 3, 3, 1, 1, 1, 1, 1, 1, 5, 5, 5, 5, 5, 5, 3, 2, 2, 2, 2, 2, 3, 3, 3, 3, 2, 2, 1, 1, 1, 1, 1, 1, 3, 3, 3, 3, 3, 3, 4, 4, 4, 4, 4, 4, 5, 5, 5, 5, 5, 5, 3, 2, 2, 1, 1, 1, 2, 2, 2, 2, 2, 2, 5, 5, 5, 5, 5, 5
 |2, 2, 2, 2, 2, 2, 1, 1, 1, 1, 1, 1, 4, 4, 4, 4, 4, 4, 4, 4, 3, 2, 1, 1, 2, 2, 2, 2, 2, 2, 3, 2, 2, 1, 1, 1, 3, 3, 3, 3, 3, 3, 4, 4, 4, 4, 4, 4, 4, 3, 3, 2, 2, 2, 3, 3, 3, 2, 1, 1, 5, 4, 4, 4, 3, 3, 4, 3, 3, 3, 3, 3, 1, 1, 1, 1, 1, 1, 1, 1, 1, 1, 1, 1, 1, 1, 1, 1, 1, 1, 5, 4, 3, 3, 2, 2, 1, 1, 1, 1, 1, 1, 4, 3, 3, 3, 3, 3, 2, 2, 2, 2, 2, 2, 3, 3, 2, 2, 2, 1, 4, 3, 3, 2, 2, 2, 5, 4, 3, 3, 3, 2, 5, 4, 4, 4, 4, 4, 5, 4, 4, 4, 4, 4, 2, 2, 2, 2, 2, 2, 3, 2, 2, 2, 2, 2, 3, 2, 2, 2, 2, 2, 4, 4, 4, 4, 3, 3, 5, 4, 3, 3, 3, 2, 4, 3, 2, 2, 1, 1, 4, 4, 4, 3, 3, 3, 5, 4, 3, 3, 1, 1, 5, 4, 4, 4, 4, 4, 3, 2, 2, 2, 2, 2, 1, 1, 1, 1, 1, 1, 2, 2, 2, 2, 2, 2, 4, 3, 3, 3, 3, 3, 3, 3, 3, 2, 1, 1, 3, 2, 2, 1, 1, 1, 2, 2, 2, 2, 1, 1, 5, 4, 4, 4, 4, 4, 5, 4, 3, 2, 2, 1, 5, 4, 3, 3, 3, 2, 5, 5, 5, 5, 5, 5, 3, 2, 2, 2, 2, 2, 3, 3, 3, 2, 2, 2, 5, 4, 4, 4, 3, 3, 4, 4, 4, 4, 4, 4, 5, 4, 4, 3, 3, 3, 1, 1, 1, 1, 1, 1, 4, 4, 4, 4, 4, 4, 2, 2, 2, 2, 2, 2, 4, 3, 3, 3, 3, 3, 4, 4, 4, 3, 2, 2, 2, 2, 2, 2, 1, 1, 4, 4, 4, 4, 3, 3, 3, 3, 3, 3, 3, 3, 5, 4, 4, 4, 4, 4, 5, 4, 4, 3, 3, 3, 4, 3, 2, 2, 2, 1, 4, 3, 3, 2, 2, 1, 4, 3, 3, 2, 1, 1, 3, 3, 2, 2, 2, 1, 4, 3, 3, 3, 3, 3, 1, 1, 1, 1, 1, 1, 3, 2, 2, 1, 1, 1, 3, 2, 2, 2, 2, 2, 3, 3, 2, 2, 2, 1, 3, 2, 2, 1, 1, 1, 5, 5, 5, 5, 5, 5, 1, 1, 1, 1, 1, 1, 3, 2, 2, 2, 2, 2, 1, 1, 1, 1, 1, 1, 3, 2, 2, 2, 1, 1, 2, 2, 2, 1, 1, 1, 4, 3, 3, 2, 1, 1, 3, 3, 3, 3, 3, 3, 4, 3, 3, 3, 2, 2, 4, 4, 4, 4, 4, 4, 3, 3, 3, 3, 3, 3, 1, 1, 1, 1, 1, 1, 2, 2, 2, 1, 1, 1, 4, 4, 4, 4, 4, 4, 5, 5, 5, 5, 5, 5, 4, 4, 4, 3, 3, 3, 5, 5, 5, 5, 5, 5, 2, 2, 2, 2, 2, 2, 4, 4, 3, 2, 1, 1, 1, 1, 1, 1, 1, 1, 2, 2, 2, 2, 2, 2, 2, 2, 2, 1, 1, 1, 1, 1, 1, 1, 1, 1, 2, 2, 2, 2, 1, 1, 5, 4, 3, 2, 2, 1, 2, 2, 2, 2, 2, 2, 4, 4, 3, 3, 3, 2, 2, 1, 1, 1, 1, 1, 4, 4, 3, 2, 1, 1, 3, 3, 3, 3, 3, 3, 2, 2, 2, 2, 2, 2
 |25, 23, 17, 15, 9, 4, 26, 21, 13, 12, 7, 5, 18, 18, 12, 11, 6, 4, 12, 11, 9, 8, 8, 6, 23, 19, 13, 10, 8, 4, 24, 19, 16, 15, 14, 10, 18, 18, 17, 15, 15, 14, 19, 16, 13, 10, 7, 6, 29, 25, 23, 20, 19, 17, 19, 16, 14, 14, 10, 9, 28, 24, 21, 20, 17, 13, 29, 25, 24, 23, 21, 19, 11, 9, 9, 7, 7, 6, 15, 15, 14, 14, 13, 12, 25, 20, 17, 11, 6, 3, 26, 23, 23, 20, 15, 13, 25, 24, 24, 23, 22, 22, 22, 19, 15, 11, 6, 2, 16, 14, 13, 11, 11, 9, 10, 7, 7, 6, 4, 2, 27, 26, 24, 24, 22, 20, 24, 23, 22, 20, 19, 19, 28, 25, 22, 21, 19, 17, 9, 9, 9, 9, 9, 9, 7, 5, 5, 3, 3, 2, 24, 21, 20, 20, 18, 16, 27, 26, 26, 25, 24, 24, 24, 19, 16, 10, 8, 6, 4, 4, 4, 3, 2, 2, 27, 27, 26, 25, 25, 24, 18, 16, 15, 15, 13, 11, 25, 23, 18, 17, 9, 7, 20, 20, 20, 20, 19, 19, 26, 20, 18, 13, 10, 4, 11, 10, 10, 9, 9, 9, 22, 18, 14, 10, 8, 3, 20, 19, 18, 18, 17, 17, 27, 23, 20, 19, 18, 14, 24, 19, 16, 13, 5, 4, 18, 17, 17, 15, 15, 13, 26, 26, 26, 26, 25, 25, 15, 14, 14, 13, 13, 12, 15, 14, 11, 10, 5, 4, 23, 23, 23, 22, 22, 22, 29, 26, 22, 19, 17, 16, 14, 13, 13, 12, 12, 11, 25, 19, 18, 11, 11, 5, 16, 16, 16, 16, 16, 16, 23, 19, 15, 14, 11, 8, 17, 15, 14, 13, 12, 12, 12, 12, 10, 10, 9, 7, 20, 19, 18, 17, 15, 14, 19, 19, 19, 19, 19, 19, 14, 14, 14, 14, 14, 14, 10, 9, 8, 8, 6, 6, 19, 17, 17, 15, 13, 9, 23, 23, 23, 23, 23, 23, 23, 23, 23, 23, 23, 23, 5, 4, 4, 4, 4, 4, 13, 13, 12, 12, 12, 11, 13, 11, 11, 10, 9, 8, 22, 21, 19, 18, 18, 15, 25, 23, 19, 14, 11, 7, 9, 6, 6, 3, 2, 1, 21, 21, 21, 21, 21, 21, 17, 17, 16, 14, 14, 13, 20, 20, 19, 18, 18, 17, 23, 22, 22, 22, 21, 20, 20, 17, 16, 15, 11, 10, 28, 24, 22, 21, 19, 17, 7, 7, 7, 6, 6, 6, 22, 21, 20, 20, 18, 17, 23, 21, 19, 18, 16, 15, 6, 5, 5, 4, 4, 4, 16, 15, 15, 15, 15, 15, 23, 17, 16, 12, 10, 8, 24, 21, 20, 15, 9, 7, 6, 6, 5, 5, 5, 4, 11, 11, 11, 10, 10, 10, 21, 17, 15, 9, 7, 4, 18, 17, 11, 10, 7, 5, 24, 24, 24, 23, 22, 22, 20, 18, 16, 14, 12, 9, 26, 25, 22, 21, 17, 16, 6, 5, 4, 4, 4, 3, 13, 12, 11, 10, 9, 9, 18, 18, 18, 18, 17, 17, 27, 25, 24, 23, 20, 20, 19, 19, 18, 18, 18, 17, 23, 21, 15, 13, 10, 8, 12, 11, 11, 11, 11, 11, 30, 28, 28, 27, 25, 25, 17, 15, 15, 12, 12, 10, 27, 26, 26, 24, 24, 23, 27, 23, 18, 12, 9, 5, 29, 24, 20, 19, 15, 13, 24, 23, 23, 22, 22, 21, 18, 17, 16, 16, 16, 15, 12, 10, 10, 9, 8, 6, 21, 21, 20, 18, 16, 15
 |7, 5, 5, 4, 4, 3, 6, 6, 4, 3, 2, 2, 21, 20, 16, 13, 13, 10, 27, 27, 27, 27, 27, 27, 27, 26, 22, 21, 19, 18, 13, 11, 10, 6, 4, 3, 18, 17, 14, 10, 9, 6, 16, 14, 13, 13, 11, 11, 28, 27, 24, 22, 22, 20, 23, 22, 19, 14, 14, 11, 18, 15, 14, 11, 10, 9, 27, 27, 27, 27, 27, 27, 24, 18, 17, 12, 9, 8, 26, 23, 22, 20, 16, 16, 18, 16, 13, 9, 6, 5, 20, 20, 13, 11, 8, 5, 26, 25, 19, 18, 10, 10, 24, 24, 24, 24, 24, 24, 17, 15, 14, 11, 9, 6, 30, 27, 27, 24, 24, 22, 17, 15, 13, 9, 7, 5, 28, 28, 28, 28, 28, 28, 20, 18, 16, 14, 13, 10, 26, 20, 19, 12, 12, 7, 17, 12, 11, 8, 6, 3, 20, 18, 16, 14, 11, 5, 25, 22, 19, 17, 13, 9, 16, 12, 9, 8, 7, 2, 20, 19, 15, 13, 8, 8, 3, 3, 3, 2, 2, 2, 9, 9, 8, 8, 7, 6, 10, 7, 7, 6, 3, 2, 17, 14, 14, 12, 11, 9, 27, 22, 21, 17, 16, 12, 24, 23, 23, 22, 22, 22, 27, 26, 25, 24, 23, 23, 21, 19, 13, 12, 9, 7, 24, 22, 18, 15, 15, 11, 21, 17, 17, 11, 11, 8, 12, 8, 8, 6, 4, 2, 13, 13, 12, 10, 9, 9, 10, 8, 8, 7, 7, 6, 28, 26, 25, 24, 23, 23, 5, 5, 5, 5, 5, 5, 27, 27, 27, 26, 25, 25, 15, 13, 13, 12, 11, 9, 10, 8, 8, 6, 6, 5, 19, 18, 18, 18, 18, 18, 15, 15, 15, 15, 15, 15, 26, 24, 21, 18, 16, 13, 21, 18, 15, 14, 9, 8, 27, 22, 19, 15, 12, 11, 25, 24, 24, 24, 23, 23, 15, 11, 9, 6, 6, 3, 29, 22, 19, 18, 16, 13, 21, 20, 19, 19, 18, 17, 22, 21, 21, 21, 21, 21, 24, 23, 22, 22, 21, 20, 20, 19, 19, 18, 17, 17, 21, 18, 17, 13, 7, 3, 24, 24, 24, 24, 24, 24, 27, 27, 23, 22, 16, 14, 15, 13, 12, 11, 10, 10, 22, 20, 16, 11, 6, 1, 22, 21, 19, 19, 17, 17, 17, 17, 17, 17, 16, 16, 24, 22, 22, 20, 18, 18, 22, 18, 18, 16, 12, 9, 23, 23, 23, 22, 22, 22, 5, 5, 4, 4, 4, 3, 15, 11, 10, 8, 6, 5, 25, 23, 22, 20, 18, 17, 27, 25, 23, 21, 20, 18, 16, 15, 12, 10, 9, 7, 18, 13, 12, 11, 6, 6, 25, 25, 25, 25, 24, 24, 6, 5, 5, 5, 5, 5, 23, 17, 14, 12, 5, 2, 27, 25, 25, 22, 20, 19, 29, 24, 20, 20, 17, 11, 17, 16, 16, 16, 15, 14, 28, 25, 25, 22, 21, 19, 25, 22, 18, 15, 14, 8, 18, 17, 15, 15, 14, 13, 29, 21, 20, 17, 10, 7, 19, 18, 18, 18, 17, 17, 13, 11, 7, 7, 3, 3, 25, 25, 24, 22, 21, 21, 9, 9, 7, 6, 6, 5, 20, 16, 14, 8, 7, 1, 20, 20, 20, 20, 19, 19, 18, 15, 13, 13, 11, 10, 22, 22, 15, 10, 10, 6, 22, 19, 13, 11, 8, 5, 26, 24, 22, 20, 16, 13, 25, 17, 16, 10, 7, 4, 17, 14, 12, 12, 11, 8, 13, 13, 12, 11, 11, 10, 28, 25, 23, 23, 19, 16, 20, 19, 15, 14, 12, 9
 |24, 23, 23, 22, 21, 21, 8, 7, 6, 6, 5, 4, 12, 11, 11, 11, 10, 10, 19, 18, 18, 16, 15, 13, 24, 22, 15, 13, 5, 3, 24, 19, 17, 14, 12, 11, 28, 28, 28, 28, 28, 28, 25, 25, 23, 20, 19, 15, 22, 18, 14, 13, 9, 4, 14, 10, 8, 8, 5, 3, 27, 26, 21, 20, 19, 14, 20, 17, 14, 12, 8, 5, 26, 26, 25, 25, 25, 24, 13, 12, 11, 11, 11, 10, 17, 15, 12, 11, 7, 7, 25, 25, 25, 24, 23, 23, 21, 20, 20, 20, 20, 20, 21, 19, 17, 16, 16, 14, 28, 28, 28, 27, 27, 26, 16, 12, 12, 9, 8, 7, 14, 13, 11, 11, 10, 8, 6, 5, 5, 5, 4, 4, 18, 17, 15, 13, 9, 9, 8, 8, 6, 6, 5, 4, 7, 7, 7, 7, 7, 7, 20, 18, 15, 15, 14, 12, 22, 18, 16, 15, 14, 12, 15, 15, 14, 13, 12, 12, 29, 29, 27, 26, 26, 25, 24, 21, 17, 15, 12, 11, 29, 29, 29, 29, 29, 29, 18, 17, 16, 16, 14, 12, 17, 16, 16, 16, 16, 16, 30, 28, 28, 27, 27, 26, 18, 17, 16, 16, 14, 14, 25, 23, 21, 20, 16, 16, 20, 19, 18, 17, 16, 15, 16, 15, 15, 15, 14, 14, 23, 20, 19, 15, 11, 9, 21, 18, 17, 15, 14, 11, 14, 13, 9, 8, 6, 2, 15, 15, 13, 12, 12, 10, 26, 23, 19, 19, 16, 14, 25, 25, 25, 25, 25, 25, 23, 23, 22, 22, 20, 20, 17, 16, 16, 15, 14, 14, 14, 11, 9, 8, 4, 4, 25, 23, 22, 21, 19, 19, 17, 14, 14, 13, 9, 8, 23, 22, 21, 21, 21, 20, 12, 11, 10, 10, 8, 8, 29, 24, 20, 18, 14, 14, 23, 22, 21, 20, 19, 17, 25, 24, 22, 18, 17, 16, 17, 15, 14, 14, 13, 12, 12, 11, 8, 7, 4, 2, 28, 27, 27, 26, 26, 25, 27, 22, 20, 17, 16, 14, 10, 10, 10, 10, 10, 10, 25, 21, 18, 17, 13, 7, 29, 27, 26, 24, 22, 21, 11, 10, 10, 10, 10, 10, 22, 22, 22, 22, 22, 22, 26, 24, 17, 15, 11, 7, 25, 24, 18, 17, 9, 8, 19, 15, 10, 9, 4, 3, 23, 21, 19, 13, 13, 9, 24, 21, 19, 16, 14, 12, 24, 22, 21, 21, 18, 17, 14, 14, 14, 14, 13, 13, 22, 19, 19, 12, 12, 8, 23, 21, 15, 15, 8, 2, 30, 23, 21, 17, 16, 10, 25, 22, 20, 19, 19, 16, 30, 26, 24, 23, 20, 19, 17, 17, 17, 17, 16, 16, 23, 21, 18, 16, 15, 13, 27, 25, 23, 20, 19, 17, 24, 21, 15, 12, 8, 2, 13, 11, 10, 10, 7, 6, 25, 24, 19, 17, 13, 12, 30, 26, 22, 18, 10, 6, 29, 28, 28, 26, 26, 25, 22, 18, 15, 12, 10, 8, 18, 17, 16, 15, 14, 13, 24, 24, 23, 23, 22, 21, 25, 23, 21, 19, 18, 16, 14, 13, 9, 9, 4, 2, 29, 27, 27, 25, 24, 24, 9, 8, 6, 5, 4, 3, 10, 9, 9, 8, 7, 7, 17, 16, 16, 16, 16, 16, 20, 17, 15, 11, 6, 4, 21, 21, 20, 19, 18, 17, 7, 6, 6, 6, 5, 5, 16, 16, 16, 15, 14, 14, 29, 21, 21, 15, 13, 7, 12, 9, 8, 5, 4, 3, 20, 20, 20, 19, 19, 19, 19, 16, 11, 7, 7, 2
 |27, 21, 19, 16, 12, 8, 30, 30, 30, 30, 30, 30, 23, 22, 18, 17, 16, 13, 19, 19, 19, 19, 19, 19, 28, 28, 28, 28, 28, 28, 25, 23, 20, 19, 18, 14, 20, 19, 18, 18, 16, 16, 29, 27, 27, 27, 26, 25, 22, 19, 18, 13, 12, 9, 1, 1, 1, 1, 1, 1, 5, 4, 4, 4, 2, 2, 8, 8, 8, 8, 8, 8, 26, 22, 22, 19, 15, 14, 25, 24, 19, 18, 15, 12, 17, 14, 12, 8, 6, 3, 23, 23, 21, 20, 20, 18, 18, 17, 16, 16, 14, 13, 28, 25, 20, 18, 16, 10, 10, 9, 6, 6, 4, 2, 25, 23, 20, 17, 14, 10, 25, 24, 22, 21, 18, 15, 22, 22, 22, 21, 21, 21, 27, 20, 16, 14, 11, 5, 24, 20, 19, 16, 14, 11, 20, 20, 20, 20, 20, 20, 27, 22, 21, 17, 14, 9, 12, 12, 9, 8, 5, 4, 16, 16, 14, 11, 9, 8, 22, 20, 20, 19, 17, 17, 18, 13, 11, 9, 9, 7, 22, 22, 20, 17, 14, 11, 29, 28, 26, 23, 22, 20, 8, 7, 6, 7, 6, 6, 13, 13, 11, 11, 9, 9, 8, 7, 7, 7, 7, 7, 13, 13, 11, 9, 7, 5, 20, 20, 20, 20, 19, 19, 12, 12, 12, 11, 11, 10, 18, 15, 15, 11, 6, 4, 21, 15, 13, 8, 5, 2, 25, 25, 24, 22, 21, 21, 17, 17, 14, 13, 12, 10, 23, 20, 16, 16, 13, 10, 10, 10, 9, 8, 8, 7, 28, 27, 27, 27, 27, 27, 24, 24, 24, 23, 23, 23, 12, 10, 10, 7, 6, 5, 27, 22, 15, 10, 5, 4, 6, 5, 4, 4, 3, 2, 22, 21, 20, 19, 19, 18, 22, 19, 19, 18, 14, 14, 11, 8, 6, 6, 5, 2, 4, 4, 3, 3, 2, 2, 27, 26, 26, 26, 26, 26, 26, 21, 20, 16, 14, 11, 25, 24, 24, 23, 23, 22, 5, 5, 5, 5, 5, 5, 20, 20, 18, 14, 13, 12, 26, 25, 20, 20, 14, 12, 16, 12, 12, 10, 9, 7, 29, 25, 23, 21, 20, 18, 23, 21, 21, 20, 20, 19, 26, 19, 18, 11, 10, 6, 23, 19, 16, 14, 12, 9, 12, 12, 12, 12, 12, 12, 20, 20, 18, 18, 16, 15, 28, 25, 24, 24, 22, 21, 20, 19, 14, 12, 8, 6, 12, 9, 8, 6, 5, 3, 15, 14, 12, 12, 11, 9, 15, 15, 15, 15, 15, 15, 16, 11, 9, 8, 5, 1, 19, 18, 18, 17, 17, 17, 17, 15, 13, 11, 10, 9, 22, 22, 18, 13, 12, 9, 19, 18, 18, 18, 17, 17, 18, 18, 13, 12, 7, 7, 27, 26, 26, 24, 22, 21, 20, 18, 16, 15, 11, 10, 18, 16, 12, 7, 7, 3, 20, 17, 13, 12, 8, 8, 12, 12, 12, 12, 12, 12, 6, 5, 4, 4, 2, 2, 27, 25, 25, 23, 23, 22, 28, 28, 28, 28, 28, 28, 20, 17, 17, 16, 14, 14, 10, 9, 7, 6, 6, 5, 24, 22, 21, 20, 19, 18, 21, 17, 14, 13, 9, 5, 6, 6, 6, 6, 6, 6, 18, 17, 14, 14, 11, 8, 27, 25, 22, 17, 16, 12, 28, 27, 27, 26, 25, 25, 28, 23, 18, 17, 13, 10, 25, 25, 23, 21, 19, 19, 22, 22, 18, 16, 15, 12, 30, 29, 27, 26, 25, 24, 23, 19, 15, 14, 8, 5, 16, 16, 14, 13, 12, 12, 17, 16, 12, 10, 8, 8|];